c description: Tseitin formula on , with odd charge
c generator: CNFgen (0.9.0)
c copyright: (C) 2012-2020 Massimo Lauria <massimo.lauria@uniroma1.it>
c url: https://massimolauria.net/cnfgen
c
p cnf 40 357
1 2 3 4 0
1 2 -3 -4 0
1 -2 3 -4 0
1 -2 -3 4 0
-1 2 3 -4 0
-1 2 -3 4 0
-1 -2 3 4 0
-1 -2 -3 -4 0
1 5 6 7 -8 0
1 5 6 -7 8 0
1 5 -6 7 8 0
1 5 -6 -7 -8 0
1 -5 6 7 8 0
1 -5 6 -7 -8 0
1 -5 -6 7 -8 0
1 -5 -6 -7 8 0
-1 5 6 7 8 0
-1 5 6 -7 -8 0
-1 5 -6 7 -8 0
-1 5 -6 -7 8 0
-1 -5 6 7 -8 0
-1 -5 6 -7 8 0
-1 -5 -6 7 8 0
-1 -5 -6 -7 -8 0
5 9 10 11 12 13 -14 0
5 9 10 11 12 -13 14 0
5 9 10 11 -12 13 14 0
5 9 10 11 -12 -13 -14 0
5 9 10 -11 12 13 14 0
5 9 10 -11 12 -13 -14 0
5 9 10 -11 -12 13 -14 0
5 9 10 -11 -12 -13 14 0
5 9 -10 11 12 13 14 0
5 9 -10 11 12 -13 -14 0
5 9 -10 11 -12 13 -14 0
5 9 -10 11 -12 -13 14 0
5 9 -10 -11 12 13 -14 0
5 9 -10 -11 12 -13 14 0
5 9 -10 -11 -12 13 14 0
5 9 -10 -11 -12 -13 -14 0
5 -9 10 11 12 13 14 0
5 -9 10 11 12 -13 -14 0
5 -9 10 11 -12 13 -14 0
5 -9 10 11 -12 -13 14 0
5 -9 10 -11 12 13 -14 0
5 -9 10 -11 12 -13 14 0
5 -9 10 -11 -12 13 14 0
5 -9 10 -11 -12 -13 -14 0
5 -9 -10 11 12 13 -14 0
5 -9 -10 11 12 -13 14 0
5 -9 -10 11 -12 13 14 0
5 -9 -10 11 -12 -13 -14 0
5 -9 -10 -11 12 13 14 0
5 -9 -10 -11 12 -13 -14 0
5 -9 -10 -11 -12 13 -14 0
5 -9 -10 -11 -12 -13 14 0
-5 9 10 11 12 13 14 0
-5 9 10 11 12 -13 -14 0
-5 9 10 11 -12 13 -14 0
-5 9 10 11 -12 -13 14 0
-5 9 10 -11 12 13 -14 0
-5 9 10 -11 12 -13 14 0
-5 9 10 -11 -12 13 14 0
-5 9 10 -11 -12 -13 -14 0
-5 9 -10 11 12 13 -14 0
-5 9 -10 11 12 -13 14 0
-5 9 -10 11 -12 13 14 0
-5 9 -10 11 -12 -13 -14 0
-5 9 -10 -11 12 13 14 0
-5 9 -10 -11 12 -13 -14 0
-5 9 -10 -11 -12 13 -14 0
-5 9 -10 -11 -12 -13 14 0
-5 -9 10 11 12 13 -14 0
-5 -9 10 11 12 -13 14 0
-5 -9 10 11 -12 13 14 0
-5 -9 10 11 -12 -13 -14 0
-5 -9 10 -11 12 13 14 0
-5 -9 10 -11 12 -13 -14 0
-5 -9 10 -11 -12 13 -14 0
-5 -9 10 -11 -12 -13 14 0
-5 -9 -10 11 12 13 14 0
-5 -9 -10 11 12 -13 -14 0
-5 -9 -10 11 -12 13 -14 0
-5 -9 -10 11 -12 -13 14 0
-5 -9 -10 -11 12 13 -14 0
-5 -9 -10 -11 12 -13 14 0
-5 -9 -10 -11 -12 13 14 0
-5 -9 -10 -11 -12 -13 -14 0
15 16 -17 0
15 -16 17 0
-15 16 17 0
-15 -16 -17 0
9 18 -19 0
9 -18 19 0
-9 18 19 0
-9 -18 -19 0
10 15 20 -21 0
10 15 -20 21 0
10 -15 20 21 0
10 -15 -20 -21 0
-10 15 20 21 0
-10 15 -20 -21 0
-10 -15 20 -21 0
-10 -15 -20 21 0
11 -22 0
-11 22 0
6 23 24 25 26 -27 0
6 23 24 25 -26 27 0
6 23 24 -25 26 27 0
6 23 24 -25 -26 -27 0
6 23 -24 25 26 27 0
6 23 -24 25 -26 -27 0
6 23 -24 -25 26 -27 0
6 23 -24 -25 -26 27 0
6 -23 24 25 26 27 0
6 -23 24 25 -26 -27 0
6 -23 24 -25 26 -27 0
6 -23 24 -25 -26 27 0
6 -23 -24 25 26 -27 0
6 -23 -24 25 -26 27 0
6 -23 -24 -25 26 27 0
6 -23 -24 -25 -26 -27 0
-6 23 24 25 26 27 0
-6 23 24 25 -26 -27 0
-6 23 24 -25 26 -27 0
-6 23 24 -25 -26 27 0
-6 23 -24 25 26 -27 0
-6 23 -24 25 -26 27 0
-6 23 -24 -25 26 27 0
-6 23 -24 -25 -26 -27 0
-6 -23 24 25 26 -27 0
-6 -23 24 25 -26 27 0
-6 -23 24 -25 26 27 0
-6 -23 24 -25 -26 -27 0
-6 -23 -24 25 26 27 0
-6 -23 -24 25 -26 -27 0
-6 -23 -24 -25 26 -27 0
-6 -23 -24 -25 -26 27 0
12 23 28 -29 0
12 23 -28 29 0
12 -23 28 29 0
12 -23 -28 -29 0
-12 23 28 29 0
-12 23 -28 -29 0
-12 -23 28 -29 0
-12 -23 -28 29 0
2 30 -31 0
2 -30 31 0
-2 30 31 0
-2 -30 -31 0
-32 0
3 16 18 24 -33 0
3 16 18 -24 33 0
3 16 -18 24 33 0
3 16 -18 -24 -33 0
3 -16 18 24 33 0
3 -16 18 -24 -33 0
3 -16 -18 24 -33 0
3 -16 -18 -24 33 0
-3 16 18 24 33 0
-3 16 18 -24 -33 0
-3 16 -18 24 -33 0
-3 16 -18 -24 33 0
-3 -16 18 24 -33 0
-3 -16 18 -24 33 0
-3 -16 -18 24 33 0
-3 -16 -18 -24 -33 0
13 20 34 -35 0
13 20 -34 35 0
13 -20 34 35 0
13 -20 -34 -35 0
-13 20 34 35 0
-13 20 -34 -35 0
-13 -20 34 -35 0
-13 -20 -34 35 0
17 22 25 30 -34 0
17 22 25 -30 34 0
17 22 -25 30 34 0
17 22 -25 -30 -34 0
17 -22 25 30 34 0
17 -22 25 -30 -34 0
17 -22 -25 30 -34 0
17 -22 -25 -30 34 0
-17 22 25 30 34 0
-17 22 25 -30 -34 0
-17 22 -25 30 -34 0
-17 22 -25 -30 34 0
-17 -22 25 30 -34 0
-17 -22 25 -30 34 0
-17 -22 -25 30 34 0
-17 -22 -25 -30 -34 0
7 -32 0
-7 32 0
14 28 35 36 -37 0
14 28 35 -36 37 0
14 28 -35 36 37 0
14 28 -35 -36 -37 0
14 -28 35 36 37 0
14 -28 35 -36 -37 0
14 -28 -35 36 -37 0
14 -28 -35 -36 37 0
-14 28 35 36 37 0
-14 28 35 -36 -37 0
-14 28 -35 36 -37 0
-14 28 -35 -36 37 0
-14 -28 35 36 -37 0
-14 -28 35 -36 37 0
-14 -28 -35 36 37 0
-14 -28 -35 -36 -37 0
21 26 29 31 33 36 38 -39 0
21 26 29 31 33 36 -38 39 0
21 26 29 31 33 -36 38 39 0
21 26 29 31 33 -36 -38 -39 0
21 26 29 31 -33 36 38 39 0
21 26 29 31 -33 36 -38 -39 0
21 26 29 31 -33 -36 38 -39 0
21 26 29 31 -33 -36 -38 39 0
21 26 29 -31 33 36 38 39 0
21 26 29 -31 33 36 -38 -39 0
21 26 29 -31 33 -36 38 -39 0
21 26 29 -31 33 -36 -38 39 0
21 26 29 -31 -33 36 38 -39 0
21 26 29 -31 -33 36 -38 39 0
21 26 29 -31 -33 -36 38 39 0
21 26 29 -31 -33 -36 -38 -39 0
21 26 -29 31 33 36 38 39 0
21 26 -29 31 33 36 -38 -39 0
21 26 -29 31 33 -36 38 -39 0
21 26 -29 31 33 -36 -38 39 0
21 26 -29 31 -33 36 38 -39 0
21 26 -29 31 -33 36 -38 39 0
21 26 -29 31 -33 -36 38 39 0
21 26 -29 31 -33 -36 -38 -39 0
21 26 -29 -31 33 36 38 -39 0
21 26 -29 -31 33 36 -38 39 0
21 26 -29 -31 33 -36 38 39 0
21 26 -29 -31 33 -36 -38 -39 0
21 26 -29 -31 -33 36 38 39 0
21 26 -29 -31 -33 36 -38 -39 0
21 26 -29 -31 -33 -36 38 -39 0
21 26 -29 -31 -33 -36 -38 39 0
21 -26 29 31 33 36 38 39 0
21 -26 29 31 33 36 -38 -39 0
21 -26 29 31 33 -36 38 -39 0
21 -26 29 31 33 -36 -38 39 0
21 -26 29 31 -33 36 38 -39 0
21 -26 29 31 -33 36 -38 39 0
21 -26 29 31 -33 -36 38 39 0
21 -26 29 31 -33 -36 -38 -39 0
21 -26 29 -31 33 36 38 -39 0
21 -26 29 -31 33 36 -38 39 0
21 -26 29 -31 33 -36 38 39 0
21 -26 29 -31 33 -36 -38 -39 0
21 -26 29 -31 -33 36 38 39 0
21 -26 29 -31 -33 36 -38 -39 0
21 -26 29 -31 -33 -36 38 -39 0
21 -26 29 -31 -33 -36 -38 39 0
21 -26 -29 31 33 36 38 -39 0
21 -26 -29 31 33 36 -38 39 0
21 -26 -29 31 33 -36 38 39 0
21 -26 -29 31 33 -36 -38 -39 0
21 -26 -29 31 -33 36 38 39 0
21 -26 -29 31 -33 36 -38 -39 0
21 -26 -29 31 -33 -36 38 -39 0
21 -26 -29 31 -33 -36 -38 39 0
21 -26 -29 -31 33 36 38 39 0
21 -26 -29 -31 33 36 -38 -39 0
21 -26 -29 -31 33 -36 38 -39 0
21 -26 -29 -31 33 -36 -38 39 0
21 -26 -29 -31 -33 36 38 -39 0
21 -26 -29 -31 -33 36 -38 39 0
21 -26 -29 -31 -33 -36 38 39 0
21 -26 -29 -31 -33 -36 -38 -39 0
-21 26 29 31 33 36 38 39 0
-21 26 29 31 33 36 -38 -39 0
-21 26 29 31 33 -36 38 -39 0
-21 26 29 31 33 -36 -38 39 0
-21 26 29 31 -33 36 38 -39 0
-21 26 29 31 -33 36 -38 39 0
-21 26 29 31 -33 -36 38 39 0
-21 26 29 31 -33 -36 -38 -39 0
-21 26 29 -31 33 36 38 -39 0
-21 26 29 -31 33 36 -38 39 0
-21 26 29 -31 33 -36 38 39 0
-21 26 29 -31 33 -36 -38 -39 0
-21 26 29 -31 -33 36 38 39 0
-21 26 29 -31 -33 36 -38 -39 0
-21 26 29 -31 -33 -36 38 -39 0
-21 26 29 -31 -33 -36 -38 39 0
-21 26 -29 31 33 36 38 -39 0
-21 26 -29 31 33 36 -38 39 0
-21 26 -29 31 33 -36 38 39 0
-21 26 -29 31 33 -36 -38 -39 0
-21 26 -29 31 -33 36 38 39 0
-21 26 -29 31 -33 36 -38 -39 0
-21 26 -29 31 -33 -36 38 -39 0
-21 26 -29 31 -33 -36 -38 39 0
-21 26 -29 -31 33 36 38 39 0
-21 26 -29 -31 33 36 -38 -39 0
-21 26 -29 -31 33 -36 38 -39 0
-21 26 -29 -31 33 -36 -38 39 0
-21 26 -29 -31 -33 36 38 -39 0
-21 26 -29 -31 -33 36 -38 39 0
-21 26 -29 -31 -33 -36 38 39 0
-21 26 -29 -31 -33 -36 -38 -39 0
-21 -26 29 31 33 36 38 -39 0
-21 -26 29 31 33 36 -38 39 0
-21 -26 29 31 33 -36 38 39 0
-21 -26 29 31 33 -36 -38 -39 0
-21 -26 29 31 -33 36 38 39 0
-21 -26 29 31 -33 36 -38 -39 0
-21 -26 29 31 -33 -36 38 -39 0
-21 -26 29 31 -33 -36 -38 39 0
-21 -26 29 -31 33 36 38 39 0
-21 -26 29 -31 33 36 -38 -39 0
-21 -26 29 -31 33 -36 38 -39 0
-21 -26 29 -31 33 -36 -38 39 0
-21 -26 29 -31 -33 36 38 -39 0
-21 -26 29 -31 -33 36 -38 39 0
-21 -26 29 -31 -33 -36 38 39 0
-21 -26 29 -31 -33 -36 -38 -39 0
-21 -26 -29 31 33 36 38 39 0
-21 -26 -29 31 33 36 -38 -39 0
-21 -26 -29 31 33 -36 38 -39 0
-21 -26 -29 31 33 -36 -38 39 0
-21 -26 -29 31 -33 36 38 -39 0
-21 -26 -29 31 -33 36 -38 39 0
-21 -26 -29 31 -33 -36 38 39 0
-21 -26 -29 31 -33 -36 -38 -39 0
-21 -26 -29 -31 33 36 38 -39 0
-21 -26 -29 -31 33 36 -38 39 0
-21 -26 -29 -31 33 -36 38 39 0
-21 -26 -29 -31 33 -36 -38 -39 0
-21 -26 -29 -31 -33 36 38 39 0
-21 -26 -29 -31 -33 36 -38 -39 0
-21 -26 -29 -31 -33 -36 38 -39 0
-21 -26 -29 -31 -33 -36 -38 39 0
8 19 27 38 -40 0
8 19 27 -38 40 0
8 19 -27 38 40 0
8 19 -27 -38 -40 0
8 -19 27 38 40 0
8 -19 27 -38 -40 0
8 -19 -27 38 -40 0
8 -19 -27 -38 40 0
-8 19 27 38 40 0
-8 19 27 -38 -40 0
-8 19 -27 38 -40 0
-8 19 -27 -38 40 0
-8 -19 27 38 -40 0
-8 -19 27 -38 40 0
-8 -19 -27 38 40 0
-8 -19 -27 -38 -40 0
4 -39 0
-4 39 0
37 -40 0
-37 40 0